NAME : mtspf.pid12496.gtsp.186905222.tour
COMMENT : Length = 186905222
COMMENT : Found by LKH [Keld Helsgaun] Sat Mar  1 01:23:53 2025
TYPE : TOUR
DIMENSION : 125
TOUR_SECTION
1
38
39
40
41
42
43
44
45
115
116
117
114
34
35
36
37
27
28
29
26
74
75
76
77
83
84
85
82
11
12
13
10
73
70
71
72
57
54
55
56
4
121
118
119
120
15
16
17
14
68
69
66
67
101
98
99
100
3
50
51
52
53
89
86
87
88
8
9
6
7
81
78
79
80
63
64
65
62
91
92
93
90
5
125
122
123
124
109
106
107
108
112
113
110
111
61
58
59
60
23
24
25
22
105
102
103
104
2
48
49
46
47
18
19
20
21
32
33
30
31
95
96
97
94
-1
EOF
